169 171 170 172 174 173 108 109 107 110 111 112 114 115 116 117 106 105 104 542 541 543 544 545 546 547 103 102 100 101 551 550 548 549 560 561 562 563 564 565 566 478 477 479 480 476 475 482 481 483 485 484 536 537 539 538 540 176 175 177 178 187 188 186 185 183 182 179 180 181 184 197 198 199 200 201 202 204 203 208 207 206 205 196 195 194 209 210 211 212 213 214 215 216 217 223 224 222 221 220 218 219 193 192 191 190 226 225 189 227 228 229 230 231 533 532 531 489 488 534 535 487 486 490 491 492 493 524 525 523 522 521 520 518 519 517 514 515 516 506 507 508 509 510 511 513 512 527 526 528 529 530 233 232 234 235 236 237 240 239 238 246 247 245 244 243 242 241 248 249 250 251 252 254 253 255 256 257 260 261 259 258 300 299 262 263 264 265 266 298 297 296 295 294 293 270 269 268 267 271 272 273 274 275 292 291 290 289 288 276 277 278 279 282 281 280 287 286 285 284 283 334 335 336 337 338 339 333 332 331 330 340 341 344 343 342 366 329 328 327 326 325 324 323 322 373 374 315 314 316 313 312 311 310 309 308 305 318 317 321 320 319 306 304 303 301 302 307 505 504 503 502 501 451 450 441 449 442 443 444 445 446 448 447 381 380 379 378 377 376 375 395 396 371 372 370 369 368 367 365 345 346 364 363 362 347 348 349 350 351 415 416 414 413 352 353 354 355 357 358 359 361 360 401 402 403 409 408 407 406 405 404 400 399 398 397 394 393 391 392 390 389 388 387 386 385 383 384 356 412 411 410 418 417 419 420 421 422 423 424 425 382 426 427 428 429 431 430 432 433 434 435 436 437 438 454 439 440 453 452 499 500 498 497 496 464 465 467 466 463 462 461 460 459 458 457 456 455 2 3 4 1 0 5 573 572 571 468 469 470 495 494 471 472 473 474 567 570 569 568 20 19 18 17 8 7 6 9 10 11 16 15 14 13 12 23 21 24 25 26 27 28 29 22 31 30 32 36 37 38 35 33 34 558 559 557 556 554 553 552 99 98 96 95 97 94 93 92 91 46 45 555 41 40 39 42 43 44 47 48 49 54 53 55 56 83 84 51 52 50 85 86 87 90 89 88 78 79 80 81 82 57 58 59 60 61 63 62 64 76 77 75 74 73 119 118 120 121 122 123 71 72 65 66 67 68 70 69 124 125 126 127 128 129 130 137 138 139 140 141 151 150 149 152 148 147 142 143 144 146 145 158 136 135 134 133 132 131 113 161 160 155 156 159 157 153 154 165 164 166 167 163 162 168